(declare-const |buf':62:75:79| Int)
(declare-const havoc Int)
(declare-const |tmp___1':63:76:80| Int)
(declare-const |K:72:73:77| Int)
(declare-const |havoc:6:60| Int)
(declare-const |havoc:2| Int)
(declare-const tmp___1 Int)
(declare-const |in':61:74:78| Int)
(assert (and (< (+ (- |havoc:2|) 1) 0) (< (- havoc) 0)
               (< (+ (- havoc) |havoc:2|) 0)
               (or (not (and (<= (- |K:72:73:77|) 0) (<= |K:72:73:77| 0)))
                     (= (+ |in':61:74:78| (- |K:72:73:77|)) 0))
               (or (not (<= (+ (- |K:72:73:77|) 1) 0))
                     (= (+ |in':61:74:78| (- |K:72:73:77|)) 0))
               (or (not (and (<= (- |K:72:73:77|) 0) (<= |K:72:73:77| 0)))
                     (= (+ |buf':62:75:79| (- |K:72:73:77|)) 0))
               (or (not (<= (+ (- |K:72:73:77|) 1) 0))
                     (= (+ |buf':62:75:79| (- |K:72:73:77|)) 0))
               (or (and (= |K:72:73:77| 0)
                          (= (+ (- |tmp___1':63:76:80|) tmp___1) 0)
                          (= (- |buf':62:75:79|) 0) (= (- |in':61:74:78|) 0))
                     (and (<= (+ (- |K:72:73:77|) 1) 0)
                            (<= (+ (- havoc) 2) 0) (<= (+ (- |havoc:2|) 1) 0)
                            (= (+ |buf':62:75:79| (- |in':61:74:78|)) 0)
                            (<= (+ |in':61:74:78| (- havoc) 1) 0)
                            (<= (+ (- |in':61:74:78|) 1) 0)
                            (<= (+ |in':61:74:78| (- |havoc:2|)) 0)))
               (<= (- |K:72:73:77|) 0) (<= (- |in':61:74:78|) 0)
               (<= (- |buf':62:75:79|) 0) (< (- havoc) 0) (< (- |havoc:2|) 0)
               (= (+ (- |buf':62:75:79|) |in':61:74:78|) 0)
               (not (= |havoc:6:60| 0))
               (not (= (+ |buf':62:75:79| (- |havoc:2|) 2) 0))
               (not (<= (- |buf':62:75:79|) 0))))
(check-sat)
